knapPI_13_2000_1000_1
n 2000
c 6352
z 13026
time 0.00
1,234,114,1
2,39,19,0
3,1053,873,0
4,351,291,0
5,585,485,0
6,78,38,0
7,117,97,0
8,234,194,0
9,312,152,0
10,156,76,0
11,156,76,0
12,273,133,0
13,351,291,0
14,351,291,0
15,312,152,0
16,468,388,0
17,156,76,0
18,585,485,0
19,468,388,0
20,1053,873,0
21,702,582,0
22,1053,873,0
23,819,679,0
24,234,194,0
25,39,19,0
26,1170,970,0
27,234,194,0
28,234,194,0
29,351,291,0
30,936,776,0
31,468,388,0
32,351,171,0
33,351,171,0
34,156,76,0
35,351,171,0
36,390,190,0
37,468,388,0
38,156,76,0
39,312,152,0
40,390,190,0
41,468,388,0
42,702,582,0
43,234,114,0
44,1170,970,0
45,195,95,0
46,117,97,0
47,351,291,0
48,936,776,0
49,585,485,0
50,78,38,0
51,702,582,0
52,234,114,0
53,117,97,0
54,117,57,0
55,117,97,0
56,819,679,0
57,234,194,0
58,702,582,0
59,702,582,0
60,156,76,0
61,39,19,0
62,351,171,0
63,1170,970,0
64,117,97,0
65,156,76,0
66,390,190,0
67,390,190,0
68,78,38,0
69,1053,873,0
70,936,776,0
71,312,152,0
72,156,76,0
73,312,152,0
74,39,19,0
75,351,291,0
76,39,19,0
77,819,679,0
78,585,485,0
79,234,114,0
80,585,485,0
81,1170,970,0
82,468,388,0
83,195,95,0
84,351,171,0
85,312,152,0
86,273,133,0
87,1170,970,0
88,312,152,0
89,390,190,0
90,936,776,0
91,390,190,0
92,1053,873,0
93,585,485,0
94,390,190,0
95,117,97,0
96,117,57,0
97,78,38,0
98,117,97,0
99,234,114,0
100,273,133,0
101,702,582,0
102,936,776,0
103,156,76,0
104,702,582,0
105,585,485,0
106,351,291,0
107,312,152,0
108,156,76,0
109,351,291,0
110,468,388,0
111,117,97,0
112,117,57,0
113,273,133,0
114,39,19,0
115,468,388,0
116,1170,970,0
117,390,190,0
118,195,95,0
119,702,582,0
120,1053,873,0
121,39,19,0
122,1170,970,0
123,117,97,0
124,234,194,0
125,234,194,0
126,819,679,0
127,234,114,0
128,936,776,0
129,702,582,0
130,585,485,0
131,1170,970,0
132,156,76,0
133,234,114,0
134,234,194,0
135,156,76,0
136,78,38,0
137,78,38,0
138,117,97,0
139,1170,970,0
140,1170,970,0
141,195,95,0
142,234,194,0
143,117,97,0
144,1170,970,0
145,585,485,0
146,936,776,0
147,117,57,0
148,117,97,0
149,702,582,0
150,585,485,0
151,1170,970,0
152,195,95,0
153,936,776,0
154,468,388,0
155,234,114,0
156,585,485,0
157,234,194,0
158,273,133,0
159,273,133,0
160,351,291,0
161,351,291,0
162,117,57,0
163,273,133,0
164,117,57,0
165,117,57,0
166,468,388,0
167,78,38,0
168,234,114,0
169,936,776,0
170,468,388,0
171,273,133,0
172,351,171,0
173,234,194,0
174,351,171,0
175,39,19,0
176,351,171,0
177,78,38,0
178,117,57,0
179,351,291,0
180,351,291,0
181,234,194,0
182,390,190,0
183,39,19,0
184,390,190,0
185,156,76,0
186,390,190,0
187,351,171,0
188,117,97,0
189,195,95,0
190,234,114,0
191,390,190,0
192,468,388,0
193,156,76,0
194,585,485,0
195,585,485,0
196,468,388,0
197,156,76,0
198,78,38,0
199,117,97,0
200,702,582,0
201,1053,873,0
202,585,485,0
203,351,291,0
204,39,19,0
205,234,194,0
206,585,485,0
207,156,76,0
208,156,76,0
209,351,291,0
210,702,582,0
211,351,291,0
212,702,582,0
213,195,95,0
214,936,776,0
215,273,133,0
216,39,19,0
217,936,776,0
218,702,582,0
219,195,95,0
220,351,291,0
221,39,19,0
222,234,114,0
223,936,776,0
224,234,194,0
225,390,190,0
226,585,485,0
227,39,19,0
228,585,485,0
229,273,133,0
230,702,582,0
231,819,679,0
232,195,95,0
233,390,190,0
234,468,388,0
235,117,57,0
236,390,190,0
237,1170,970,0
238,1053,873,0
239,117,57,0
240,1053,873,0
241,78,38,0
242,312,152,0
243,585,485,0
244,702,582,0
245,351,291,0
246,702,582,0
247,468,388,0
248,117,57,0
249,117,57,0
250,273,133,0
251,819,679,0
252,195,95,0
253,156,76,0
254,1053,873,0
255,702,582,0
256,117,97,0
257,1170,970,0
258,312,152,0
259,234,114,0
260,312,152,0
261,351,171,0
262,1170,970,0
263,819,679,0
264,273,133,0
265,195,95,0
266,819,679,0
267,936,776,0
268,585,485,0
269,234,114,0
270,78,38,0
271,273,133,0
272,702,582,0
273,78,38,0
274,1053,873,0
275,312,152,0
276,195,95,0
277,312,152,0
278,156,76,0
279,819,679,0
280,819,679,0
281,234,194,0
282,117,97,0
283,585,485,0
284,312,152,0
285,78,38,0
286,351,171,0
287,702,582,0
288,195,95,0
289,195,95,0
290,234,114,0
291,936,776,0
292,273,133,0
293,234,194,0
294,234,194,0
295,117,97,0
296,819,679,0
297,78,38,0
298,936,776,0
299,273,133,0
300,78,38,0
301,312,152,0
302,1053,873,0
303,78,38,0
304,312,152,0
305,1053,873,0
306,351,291,0
307,234,194,0
308,1053,873,0
309,234,114,0
310,1053,873,0
311,1053,873,0
312,702,582,0
313,234,114,0
314,156,76,0
315,117,97,0
316,195,95,0
317,39,19,0
318,156,76,0
319,312,152,0
320,819,679,0
321,234,194,0
322,1053,873,0
323,819,679,0
324,702,582,0
325,468,388,0
326,312,152,0
327,351,291,0
328,936,776,0
329,234,114,0
330,702,582,0
331,390,190,0
332,468,388,0
333,78,38,0
334,390,190,0
335,390,190,0
336,39,19,0
337,273,133,0
338,156,76,0
339,195,95,0
340,117,57,0
341,312,152,0
342,390,190,0
343,312,152,0
344,1170,970,0
345,117,57,0
346,819,679,0
347,78,38,0
348,468,388,0
349,195,95,0
350,390,190,0
351,702,582,0
352,234,114,0
353,156,76,0
354,390,190,0
355,312,152,0
356,1170,970,0
357,585,485,0
358,702,582,0
359,1170,970,0
360,819,679,0
361,351,171,0
362,117,97,0
363,819,679,0
364,156,76,0
365,156,76,0
366,312,152,0
367,819,679,0
368,936,776,0
369,585,485,0
370,1053,873,0
371,312,152,0
372,117,97,0
373,234,114,0
374,273,133,0
375,78,38,0
376,702,582,0
377,702,582,0
378,468,388,0
379,39,19,0
380,39,19,0
381,312,152,0
382,819,679,0
383,351,171,0
384,156,76,0
385,936,776,0
386,1053,873,0
387,1170,970,0
388,351,171,0
389,117,97,0
390,234,194,0
391,1053,873,0
392,39,19,0
393,117,57,0
394,39,19,0
395,819,679,0
396,585,485,0
397,390,190,0
398,1170,970,0
399,1053,873,0
400,390,190,0
401,195,95,0
402,351,171,0
403,936,776,0
404,351,171,0
405,351,291,0
406,819,679,0
407,819,679,0
408,195,95,0
409,351,291,0
410,936,776,0
411,234,194,0
412,156,76,0
413,468,388,0
414,39,19,0
415,234,194,0
416,1053,873,0
417,156,76,0
418,702,582,0
419,819,679,0
420,195,95,0
421,234,194,0
422,468,388,0
423,1170,970,0
424,312,152,0
425,39,19,0
426,117,97,0
427,585,485,0
428,390,190,0
429,39,19,0
430,351,171,0
431,312,152,0
432,78,38,0
433,39,19,0
434,39,19,0
435,156,76,0
436,117,57,0
437,585,485,0
438,351,291,0
439,702,582,0
440,1053,873,0
441,195,95,0
442,117,97,0
443,312,152,0
444,351,171,0
445,819,679,0
446,156,76,0
447,117,97,0
448,351,291,0
449,117,57,0
450,312,152,0
451,351,291,0
452,468,388,0
453,234,114,0
454,585,485,0
455,117,97,0
456,351,171,0
457,156,76,0
458,195,95,0
459,195,95,0
460,819,679,0
461,117,57,0
462,273,133,0
463,1170,970,0
464,234,114,0
465,702,582,0
466,1053,873,0
467,156,76,0
468,195,95,0
469,273,133,0
470,234,194,0
471,234,114,0
472,39,19,0
473,390,190,0
474,117,57,0
475,702,582,0
476,273,133,0
477,702,582,0
478,234,194,0
479,156,76,0
480,39,19,0
481,585,485,0
482,819,679,0
483,351,291,0
484,234,194,0
485,117,57,0
486,195,95,0
487,351,171,0
488,273,133,0
489,351,171,0
490,39,19,0
491,1053,873,0
492,273,133,0
493,819,679,0
494,78,38,0
495,78,38,0
496,39,19,0
497,117,97,0
498,156,76,0
499,468,388,0
500,234,114,0
501,819,679,0
502,702,582,0
503,117,97,0
504,195,95,0
505,351,171,0
506,195,95,0
507,390,190,0
508,156,76,0
509,78,38,0
510,351,171,0
511,39,19,0
512,156,76,0
513,1053,873,0
514,39,19,0
515,78,38,0
516,312,152,0
517,195,95,0
518,390,190,0
519,234,194,0
520,1053,873,0
521,819,679,0
522,819,679,0
523,234,194,0
524,156,76,0
525,117,97,0
526,1170,970,0
527,702,582,0
528,39,19,0
529,312,152,0
530,39,19,0
531,819,679,0
532,312,152,0
533,1170,970,0
534,702,582,0
535,273,133,0
536,234,194,0
537,390,190,0
538,273,133,0
539,234,194,0
540,390,190,0
541,117,57,0
542,702,582,0
543,585,485,0
544,1170,970,0
545,351,171,0
546,351,291,0
547,819,679,0
548,936,776,0
549,78,38,0
550,351,171,0
551,273,133,0
552,390,190,0
553,468,388,0
554,156,76,0
555,273,133,0
556,234,194,0
557,585,485,0
558,351,171,0
559,78,38,0
560,702,582,0
561,117,57,0
562,234,194,0
563,234,114,0
564,1053,873,0
565,234,114,0
566,1053,873,0
567,351,291,0
568,234,194,0
569,390,190,0
570,117,57,0
571,351,171,0
572,39,19,0
573,78,38,0
574,468,388,0
575,819,679,0
576,117,97,0
577,156,76,0
578,351,171,0
579,156,76,0
580,312,152,0
581,702,582,0
582,195,95,0
583,702,582,0
584,702,582,0
585,78,38,0
586,351,291,0
587,234,114,0
588,819,679,0
589,312,152,0
590,78,38,0
591,117,57,0
592,117,97,0
593,1053,873,0
594,585,485,0
595,234,114,0
596,1053,873,0
597,585,485,0
598,351,291,0
599,585,485,0
600,351,291,0
601,351,171,0
602,585,485,0
603,936,776,0
604,195,95,0
605,39,19,0
606,195,95,0
607,117,57,0
608,156,76,0
609,117,97,0
610,351,291,0
611,273,133,0
612,702,582,0
613,351,171,0
614,585,485,0
615,1053,873,0
616,936,776,0
617,78,38,0
618,351,291,0
619,156,76,0
620,234,194,0
621,468,388,0
622,390,190,0
623,117,57,0
624,585,485,0
625,234,194,0
626,156,76,0
627,117,97,0
628,390,190,0
629,351,291,0
630,117,57,0
631,39,19,0
632,156,76,0
633,156,76,0
634,585,485,0
635,351,291,0
636,117,57,0
637,156,76,0
638,468,388,0
639,234,114,0
640,39,19,0
641,351,171,0
642,78,38,0
643,39,19,0
644,468,388,0
645,234,194,0
646,117,97,0
647,117,57,0
648,273,133,0
649,702,582,0
650,234,114,0
651,1170,970,0
652,819,679,0
653,234,194,0
654,585,485,0
655,702,582,0
656,390,190,0
657,936,776,0
658,351,171,0
659,351,291,0
660,351,171,0
661,1170,970,0
662,390,190,0
663,273,133,0
664,117,97,0
665,936,776,0
666,234,114,0
667,1170,970,0
668,39,19,0
669,468,388,0
670,273,133,0
671,234,114,0
672,390,190,0
673,351,291,0
674,351,291,0
675,195,95,0
676,351,291,0
677,585,485,0
678,78,38,0
679,1170,970,0
680,78,38,0
681,156,76,0
682,312,152,0
683,156,76,0
684,936,776,0
685,273,133,0
686,390,190,0
687,234,194,0
688,351,171,0
689,936,776,0
690,585,485,0
691,351,171,0
692,117,97,0
693,273,133,0
694,234,194,0
695,351,171,0
696,273,133,0
697,1170,970,0
698,195,95,0
699,1170,970,0
700,1053,873,0
701,351,171,0
702,1053,873,0
703,351,291,0
704,234,114,0
705,390,190,0
706,195,95,0
707,936,776,0
708,585,485,0
709,819,679,0
710,1053,873,0
711,273,133,0
712,390,190,0
713,351,291,0
714,351,291,0
715,195,95,0
716,819,679,0
717,1053,873,0
718,351,171,0
719,117,57,0
720,351,171,0
721,1170,970,0
722,1053,873,0
723,273,133,0
724,1170,970,0
725,234,194,0
726,312,152,0
727,195,95,0
728,234,194,0
729,39,19,0
730,234,194,0
731,390,190,0
732,39,19,0
733,702,582,0
734,819,679,0
735,156,76,0
736,819,679,0
737,585,485,0
738,585,485,0
739,156,76,0
740,1170,970,0
741,117,57,0
742,390,190,0
743,1053,873,0
744,117,97,0
745,351,171,0
746,1170,970,0
747,117,97,0
748,234,194,0
749,234,194,0
750,351,291,0
751,351,171,0
752,273,133,0
753,819,679,0
754,273,133,0
755,936,776,0
756,234,194,0
757,390,190,0
758,117,57,0
759,273,133,0
760,351,291,0
761,312,152,0
762,117,97,0
763,39,19,0
764,273,133,0
765,351,291,0
766,234,194,0
767,39,19,0
768,156,76,0
769,39,19,0
770,234,114,0
771,1053,873,0
772,312,152,0
773,1053,873,0
774,468,388,0
775,702,582,0
776,1170,970,0
777,819,679,0
778,390,190,0
779,78,38,0
780,936,776,0
781,234,114,0
782,273,133,0
783,39,19,0
784,312,152,0
785,117,97,0
786,117,57,0
787,585,485,0
788,585,485,0
789,156,76,0
790,117,57,0
791,117,97,0
792,1053,873,0
793,1170,970,0
794,390,190,0
795,273,133,0
796,312,152,0
797,936,776,0
798,351,171,0
799,819,679,0
800,819,679,0
801,39,19,0
802,117,97,0
803,585,485,0
804,273,133,0
805,1170,970,0
806,936,776,0
807,156,76,0
808,234,194,0
809,117,57,0
810,312,152,0
811,234,194,0
812,312,152,0
813,117,97,0
814,234,194,0
815,585,485,0
816,351,291,0
817,39,19,0
818,195,95,0
819,78,38,0
820,234,194,0
821,78,38,0
822,117,57,0
823,819,679,0
824,78,38,0
825,312,152,0
826,351,171,0
827,234,194,0
828,936,776,0
829,195,95,0
830,1170,970,0
831,1053,873,0
832,351,291,0
833,468,388,0
834,351,291,0
835,351,291,0
836,468,388,0
837,1053,873,0
838,1053,873,0
839,195,95,0
840,156,76,0
841,351,291,0
842,1170,970,0
843,351,291,0
844,390,190,0
845,195,95,0
846,1053,873,0
847,117,57,0
848,78,38,0
849,39,19,0
850,117,97,0
851,234,114,0
852,117,97,0
853,468,388,0
854,1170,970,0
855,273,133,0
856,195,95,0
857,117,57,0
858,819,679,0
859,351,291,0
860,1053,873,0
861,702,582,0
862,1053,873,0
863,117,57,0
864,195,95,0
865,1053,873,0
866,390,190,0
867,234,194,0
868,351,171,0
869,234,194,0
870,1053,873,0
871,1170,970,0
872,39,19,0
873,234,194,0
874,1170,970,0
875,1053,873,0
876,1053,873,0
877,312,152,0
878,156,76,0
879,234,194,0
880,390,190,0
881,234,194,0
882,234,194,0
883,273,133,0
884,273,133,0
885,390,190,0
886,312,152,0
887,117,57,0
888,585,485,0
889,819,679,0
890,468,388,0
891,585,485,0
892,819,679,0
893,351,291,0
894,1053,873,0
895,195,95,0
896,351,171,0
897,234,114,0
898,936,776,0
899,39,19,0
900,312,152,0
901,351,171,0
902,702,582,0
903,117,57,0
904,195,95,0
905,156,76,0
906,312,152,0
907,585,485,0
908,936,776,0
909,468,388,0
910,1053,873,0
911,234,114,0
912,468,388,0
913,117,97,0
914,1170,970,0
915,936,776,0
916,1170,970,0
917,234,194,0
918,234,114,0
919,234,114,0
920,39,19,0
921,117,57,0
922,234,114,0
923,273,133,0
924,936,776,0
925,39,19,0
926,819,679,0
927,351,291,0
928,1170,970,0
929,312,152,0
930,195,95,0
931,585,485,0
932,351,291,0
933,234,194,0
934,351,171,0
935,1053,873,0
936,39,19,0
937,195,95,0
938,78,38,0
939,585,485,0
940,117,97,0
941,1053,873,0
942,819,679,0
943,1053,873,0
944,819,679,0
945,351,291,0
946,1053,873,0
947,1053,873,0
948,312,152,0
949,936,776,0
950,1053,873,0
951,468,388,0
952,312,152,0
953,351,171,0
954,312,152,0
955,117,97,0
956,702,582,0
957,234,194,0
958,702,582,0
959,1170,970,0
960,468,388,0
961,117,97,0
962,351,171,0
963,78,38,0
964,936,776,0
965,117,57,0
966,39,19,0
967,195,95,0
968,936,776,0
969,78,38,0
970,351,171,0
971,936,776,0
972,273,133,0
973,936,776,0
974,585,485,0
975,702,582,0
976,234,114,0
977,351,291,0
978,468,388,0
979,351,291,0
980,234,114,0
981,468,388,0
982,585,485,0
983,351,171,0
984,234,194,0
985,936,776,0
986,78,38,1
987,819,679,0
988,78,38,1
989,117,97,0
990,195,95,1
991,936,776,0
992,39,19,1
993,234,114,1
994,351,291,0
995,156,76,1
996,1053,873,0
997,390,190,1
998,117,97,0
999,156,76,1
1000,273,133,1
1001,468,388,0
1002,117,57,1
1003,1053,873,0
1004,351,171,1
1005,1170,970,0
1006,156,76,1
1007,78,38,1
1008,195,95,1
1009,156,76,1
1010,468,388,0
1011,351,291,0
1012,117,97,0
1013,156,76,1
1014,819,679,0
1015,936,776,0
1016,936,776,0
1017,312,152,1
1018,78,38,1
1019,312,152,1
1020,936,776,0
1021,234,194,0
1022,390,190,0
1023,585,485,0
1024,351,291,0
1025,585,485,0
1026,234,114,0
1027,273,133,0
1028,117,97,0
1029,819,679,0
1030,312,152,0
1031,117,97,0
1032,39,19,0
1033,819,679,0
1034,1170,970,0
1035,234,194,0
1036,195,95,0
1037,117,57,0
1038,1053,873,0
1039,195,95,0
1040,117,97,0
1041,585,485,0
1042,78,38,0
1043,273,133,0
1044,819,679,0
1045,468,388,0
1046,702,582,0
1047,390,190,1
1048,1170,970,0
1049,312,152,1
1050,351,291,0
1051,273,133,1
1052,234,114,0
1053,195,95,0
1054,351,171,0
1055,351,291,0
1056,702,582,0
1057,273,133,0
1058,351,171,0
1059,936,776,0
1060,78,38,1
1061,702,582,0
1062,1170,970,0
1063,1053,873,0
1064,195,95,1
1065,1053,873,0
1066,1053,873,0
1067,1170,970,0
1068,273,133,1
1069,390,190,1
1070,936,776,0
1071,117,57,1
1072,195,95,1
1073,273,133,1
1074,234,114,1
1075,234,194,0
1076,585,485,0
1077,702,582,0
1078,351,291,0
1079,351,291,0
1080,234,114,1
1081,351,291,0
1082,1053,873,0
1083,234,114,1
1084,234,194,0
1085,351,291,0
1086,117,57,1
1087,78,38,1
1088,273,133,1
1089,1170,970,0
1090,468,388,0
1091,312,152,1
1092,78,38,1
1093,1053,873,0
1094,234,194,0
1095,312,152,1
1096,78,38,1
1097,117,97,0
1098,819,679,0
1099,468,388,0
1100,195,95,1
1101,273,133,1
1102,234,194,0
1103,39,19,1
1104,468,388,0
1105,1053,873,0
1106,39,19,1
1107,936,776,0
1108,585,485,0
1109,936,776,0
1110,468,388,0
1111,819,679,0
1112,234,114,1
1113,1170,970,0
1114,468,388,0
1115,117,97,0
1116,702,582,0
1117,234,114,1
1118,468,388,0
1119,234,194,0
1120,156,76,1
1121,78,38,1
1122,351,291,0
1123,234,194,0
1124,585,485,0
1125,195,95,1
1126,117,57,1
1127,468,388,0
1128,156,76,1
1129,273,133,1
1130,234,194,0
1131,702,582,0
1132,117,97,0
1133,1170,970,0
1134,312,152,1
1135,390,190,1
1136,819,679,0
1137,117,97,0
1138,156,76,1
1139,312,152,1
1140,234,114,1
1141,819,679,0
1142,468,388,0
1143,1170,970,0
1144,234,114,1
1145,351,171,1
1146,1053,873,0
1147,117,57,1
1148,117,57,1
1149,39,19,0
1150,1170,970,0
1151,936,776,0
1152,936,776,0
1153,312,152,1
1154,312,152,0
1155,273,133,0
1156,195,95,0
1157,156,76,0
1158,351,291,0
1159,234,194,0
1160,234,114,0
1161,39,19,0
1162,819,679,0
1163,702,582,0
1164,936,776,0
1165,1170,970,0
1166,234,194,0
1167,312,152,0
1168,936,776,0
1169,78,38,0
1170,351,171,0
1171,702,582,0
1172,234,194,0
1173,117,97,0
1174,390,190,0
1175,117,57,0
1176,351,291,0
1177,390,190,0
1178,234,194,0
1179,351,171,0
1180,117,57,0
1181,39,19,0
1182,117,97,0
1183,234,114,0
1184,702,582,0
1185,117,97,0
1186,390,190,0
1187,312,152,0
1188,585,485,0
1189,39,19,0
1190,273,133,0
1191,351,291,0
1192,585,485,0
1193,312,152,0
1194,819,679,0
1195,1053,873,0
1196,1170,970,0
1197,819,679,0
1198,117,97,0
1199,819,679,0
1200,936,776,0
1201,156,76,0
1202,234,114,0
1203,702,582,0
1204,702,582,0
1205,117,97,0
1206,156,76,0
1207,195,95,0
1208,1053,873,0
1209,312,152,0
1210,351,291,0
1211,1053,873,0
1212,78,38,0
1213,78,38,0
1214,39,19,0
1215,468,388,0
1216,273,133,0
1217,702,582,0
1218,468,388,0
1219,156,76,0
1220,351,291,0
1221,1170,970,0
1222,234,114,0
1223,819,679,0
1224,585,485,0
1225,936,776,0
1226,39,19,0
1227,702,582,0
1228,351,171,0
1229,78,38,0
1230,390,190,0
1231,702,582,0
1232,312,152,0
1233,702,582,0
1234,819,679,0
1235,78,38,0
1236,351,291,0
1237,351,171,0
1238,351,291,0
1239,468,388,0
1240,273,133,0
1241,390,190,0
1242,1053,873,0
1243,78,38,0
1244,468,388,0
1245,351,171,0
1246,702,582,0
1247,117,97,0
1248,702,582,0
1249,156,76,0
1250,1053,873,0
1251,468,388,0
1252,117,97,0
1253,234,114,0
1254,78,38,0
1255,702,582,0
1256,819,679,0
1257,234,194,0
1258,117,97,0
1259,273,133,0
1260,39,19,0
1261,1053,873,0
1262,117,97,0
1263,117,57,0
1264,39,19,0
1265,936,776,0
1266,702,582,0
1267,468,388,0
1268,351,171,0
1269,234,114,0
1270,156,76,0
1271,468,388,0
1272,936,776,0
1273,117,57,0
1274,1170,970,0
1275,585,485,0
1276,819,679,0
1277,585,485,0
1278,78,38,0
1279,273,133,0
1280,117,97,0
1281,312,152,0
1282,819,679,0
1283,234,114,0
1284,117,97,0
1285,273,133,0
1286,1170,970,0
1287,1170,970,0
1288,1053,873,0
1289,156,76,0
1290,195,95,0
1291,273,133,0
1292,1053,873,0
1293,1170,970,0
1294,39,19,0
1295,468,388,0
1296,936,776,0
1297,351,171,0
1298,1170,970,0
1299,234,194,0
1300,702,582,0
1301,78,38,0
1302,234,194,0
1303,312,152,0
1304,117,97,0
1305,312,152,0
1306,936,776,0
1307,702,582,0
1308,390,190,0
1309,936,776,0
1310,234,194,0
1311,468,388,0
1312,117,57,0
1313,39,19,0
1314,234,114,0
1315,117,97,0
1316,1053,873,0
1317,273,133,0
1318,117,57,0
1319,78,38,0
1320,117,57,0
1321,585,485,0
1322,117,97,0
1323,936,776,0
1324,585,485,0
1325,351,171,0
1326,39,19,0
1327,312,152,0
1328,1170,970,0
1329,117,97,0
1330,585,485,0
1331,468,388,0
1332,1053,873,0
1333,351,291,0
1334,351,291,0
1335,1053,873,0
1336,39,19,0
1337,117,97,0
1338,234,194,0
1339,1053,873,0
1340,39,19,0
1341,468,388,0
1342,117,57,0
1343,585,485,0
1344,39,19,0
1345,351,171,0
1346,390,190,0
1347,156,76,0
1348,1053,873,0
1349,156,76,0
1350,117,57,0
1351,351,291,0
1352,468,388,0
1353,351,291,0
1354,234,194,0
1355,390,190,0
1356,468,388,0
1357,936,776,0
1358,819,679,0
1359,234,114,0
1360,78,38,0
1361,312,152,0
1362,702,582,0
1363,234,194,0
1364,1170,970,0
1365,195,95,0
1366,39,19,0
1367,39,19,0
1368,234,194,0
1369,468,388,0
1370,1170,970,0
1371,351,291,0
1372,117,57,0
1373,273,133,0
1374,1170,970,0
1375,351,291,0
1376,585,485,0
1377,78,38,0
1378,195,95,0
1379,195,95,0
1380,156,76,0
1381,117,97,0
1382,195,95,0
1383,585,485,0
1384,273,133,0
1385,117,57,0
1386,234,194,0
1387,273,133,0
1388,351,291,0
1389,39,19,0
1390,234,114,0
1391,936,776,0
1392,234,114,0
1393,117,97,0
1394,351,291,0
1395,1170,970,0
1396,273,133,0
1397,390,190,0
1398,351,291,0
1399,702,582,0
1400,117,97,0
1401,234,194,0
1402,702,582,0
1403,351,171,0
1404,585,485,0
1405,273,133,0
1406,1053,873,0
1407,819,679,0
1408,1170,970,0
1409,195,95,0
1410,312,152,0
1411,1170,970,0
1412,702,582,0
1413,390,190,0
1414,702,582,0
1415,390,190,0
1416,312,152,0
1417,702,582,0
1418,1053,873,0
1419,1053,873,0
1420,702,582,0
1421,468,388,0
1422,351,291,0
1423,936,776,0
1424,117,57,0
1425,390,190,0
1426,234,114,0
1427,117,57,0
1428,156,76,0
1429,156,76,0
1430,78,38,0
1431,1170,970,0
1432,195,95,0
1433,156,76,0
1434,234,194,0
1435,819,679,0
1436,234,194,0
1437,351,171,0
1438,819,679,0
1439,936,776,0
1440,234,114,0
1441,195,95,0
1442,936,776,0
1443,468,388,0
1444,39,19,0
1445,312,152,0
1446,117,57,0
1447,39,19,0
1448,234,194,0
1449,273,133,0
1450,468,388,0
1451,78,38,0
1452,819,679,0
1453,390,190,0
1454,936,776,0
1455,234,114,0
1456,234,194,0
1457,351,291,0
1458,78,38,0
1459,351,171,0
1460,351,291,0
1461,195,95,0
1462,273,133,0
1463,234,114,0
1464,156,76,0
1465,351,291,0
1466,39,19,0
1467,1170,970,0
1468,234,114,0
1469,468,388,0
1470,39,19,0
1471,312,152,0
1472,234,194,0
1473,117,97,0
1474,1053,873,0
1475,78,38,0
1476,234,194,0
1477,39,19,0
1478,234,194,0
1479,117,97,0
1480,234,194,0
1481,39,19,0
1482,585,485,0
1483,273,133,0
1484,819,679,0
1485,819,679,0
1486,234,114,0
1487,117,57,0
1488,195,95,0
1489,585,485,0
1490,351,171,0
1491,585,485,0
1492,390,190,0
1493,585,485,0
1494,273,133,0
1495,585,485,0
1496,195,95,0
1497,819,679,0
1498,351,291,0
1499,195,95,0
1500,468,388,0
1501,390,190,0
1502,702,582,0
1503,117,57,0
1504,390,190,0
1505,117,97,0
1506,117,97,0
1507,819,679,0
1508,1170,970,0
1509,936,776,0
1510,351,291,0
1511,468,388,0
1512,117,97,0
1513,1053,873,0
1514,390,190,0
1515,117,57,0
1516,702,582,0
1517,234,194,0
1518,234,194,0
1519,234,114,0
1520,351,291,0
1521,273,133,0
1522,819,679,0
1523,234,194,0
1524,1053,873,0
1525,312,152,0
1526,468,388,0
1527,39,19,0
1528,936,776,0
1529,195,95,0
1530,78,38,0
1531,1170,970,0
1532,468,388,0
1533,78,38,0
1534,936,776,0
1535,351,291,0
1536,312,152,0
1537,78,38,0
1538,1170,970,0
1539,585,485,0
1540,195,95,0
1541,585,485,0
1542,78,38,0
1543,1170,970,0
1544,312,152,0
1545,390,190,0
1546,351,171,0
1547,819,679,0
1548,390,190,0
1549,273,133,0
1550,234,194,0
1551,819,679,0
1552,273,133,0
1553,351,171,0
1554,936,776,0
1555,936,776,0
1556,351,171,0
1557,234,194,0
1558,195,95,0
1559,936,776,0
1560,702,582,0
1561,234,194,0
1562,195,95,0
1563,1053,873,0
1564,195,95,0
1565,78,38,0
1566,195,95,0
1567,468,388,0
1568,195,95,0
1569,39,19,0
1570,234,194,0
1571,1170,970,0
1572,156,76,0
1573,351,291,0
1574,1170,970,0
1575,351,171,0
1576,468,388,0
1577,195,95,0
1578,273,133,0
1579,351,291,0
1580,195,95,0
1581,702,582,0
1582,585,485,0
1583,936,776,0
1584,312,152,0
1585,819,679,0
1586,156,76,0
1587,234,114,0
1588,702,582,0
1589,585,485,0
1590,117,57,0
1591,585,485,0
1592,1053,873,0
1593,39,19,0
1594,936,776,0
1595,351,171,0
1596,312,152,0
1597,1053,873,0
1598,585,485,0
1599,273,133,0
1600,273,133,0
1601,117,97,0
1602,468,388,0
1603,351,291,0
1604,351,171,0
1605,312,152,0
1606,39,19,0
1607,312,152,0
1608,117,57,0
1609,1053,873,0
1610,195,95,0
1611,351,171,0
1612,585,485,0
1613,234,194,0
1614,156,76,0
1615,468,388,0
1616,585,485,0
1617,234,194,0
1618,312,152,0
1619,468,388,0
1620,468,388,0
1621,273,133,0
1622,312,152,0
1623,195,95,0
1624,117,97,0
1625,234,194,0
1626,351,291,0
1627,1053,873,0
1628,273,133,0
1629,819,679,0
1630,1053,873,0
1631,78,38,0
1632,1053,873,0
1633,234,194,0
1634,468,388,0
1635,78,38,0
1636,234,194,0
1637,390,190,0
1638,117,57,0
1639,936,776,0
1640,468,388,0
1641,468,388,0
1642,468,388,0
1643,468,388,0
1644,273,133,0
1645,585,485,0
1646,351,171,0
1647,390,190,0
1648,39,19,0
1649,468,388,0
1650,351,291,0
1651,312,152,0
1652,1053,873,0
1653,312,152,0
1654,351,291,0
1655,351,171,0
1656,39,19,0
1657,351,291,0
1658,39,19,0
1659,117,97,0
1660,273,133,0
1661,819,679,0
1662,117,97,0
1663,819,679,0
1664,117,57,0
1665,234,194,0
1666,468,388,0
1667,234,194,0
1668,702,582,0
1669,819,679,0
1670,819,679,0
1671,819,679,0
1672,234,114,0
1673,819,679,0
1674,702,582,0
1675,1053,873,0
1676,585,485,0
1677,390,190,0
1678,117,97,0
1679,702,582,0
1680,39,19,0
1681,351,291,0
1682,585,485,0
1683,312,152,0
1684,819,679,0
1685,273,133,0
1686,351,171,0
1687,468,388,0
1688,1053,873,0
1689,39,19,0
1690,702,582,0
1691,702,582,0
1692,117,57,0
1693,117,57,0
1694,585,485,0
1695,351,171,0
1696,936,776,0
1697,468,388,0
1698,1053,873,0
1699,312,152,0
1700,273,133,0
1701,234,114,0
1702,468,388,0
1703,273,133,0
1704,234,194,0
1705,1170,970,0
1706,156,76,0
1707,468,388,0
1708,78,38,0
1709,390,190,0
1710,351,171,0
1711,390,190,0
1712,1053,873,0
1713,468,388,0
1714,390,190,0
1715,156,76,0
1716,39,19,0
1717,234,194,0
1718,78,38,0
1719,819,679,0
1720,390,190,0
1721,468,388,0
1722,390,190,0
1723,936,776,0
1724,117,97,0
1725,117,97,0
1726,312,152,0
1727,351,171,0
1728,351,171,0
1729,117,97,0
1730,351,291,0
1731,312,152,0
1732,234,194,0
1733,585,485,0
1734,351,291,0
1735,234,194,0
1736,195,95,0
1737,78,38,0
1738,39,19,0
1739,117,57,0
1740,351,291,0
1741,195,95,0
1742,936,776,0
1743,234,194,0
1744,312,152,0
1745,585,485,0
1746,156,76,0
1747,78,38,0
1748,351,171,0
1749,936,776,0
1750,117,57,0
1751,702,582,0
1752,234,114,0
1753,468,388,0
1754,390,190,0
1755,819,679,0
1756,1053,873,0
1757,351,291,0
1758,195,95,0
1759,39,19,0
1760,312,152,0
1761,234,194,0
1762,117,97,0
1763,39,19,0
1764,234,114,0
1765,351,291,0
1766,351,291,0
1767,195,95,0
1768,234,114,0
1769,351,291,0
1770,351,291,0
1771,195,95,0
1772,351,171,0
1773,351,291,0
1774,351,171,0
1775,351,171,0
1776,819,679,0
1777,1053,873,0
1778,117,97,0
1779,1053,873,0
1780,117,97,0
1781,234,114,0
1782,117,57,0
1783,39,19,0
1784,117,97,0
1785,351,171,0
1786,1170,970,0
1787,585,485,0
1788,585,485,0
1789,351,171,0
1790,117,57,0
1791,585,485,0
1792,468,388,0
1793,234,194,0
1794,1053,873,0
1795,39,19,0
1796,156,76,0
1797,351,291,0
1798,702,582,0
1799,585,485,0
1800,585,485,0
1801,1170,970,0
1802,234,194,0
1803,351,171,0
1804,585,485,0
1805,936,776,0
1806,78,38,0
1807,390,190,0
1808,117,97,0
1809,234,114,0
1810,234,194,0
1811,390,190,0
1812,351,171,0
1813,390,190,0
1814,1170,970,0
1815,351,171,0
1816,819,679,0
1817,195,95,0
1818,936,776,0
1819,702,582,0
1820,39,19,0
1821,117,97,0
1822,702,582,0
1823,468,388,0
1824,390,190,0
1825,78,38,0
1826,351,291,0
1827,1053,873,0
1828,273,133,0
1829,117,97,0
1830,156,76,0
1831,234,194,0
1832,351,171,0
1833,585,485,0
1834,351,171,0
1835,351,291,0
1836,585,485,0
1837,936,776,0
1838,351,291,0
1839,351,171,0
1840,351,171,0
1841,39,19,0
1842,195,95,0
1843,312,152,0
1844,312,152,0
1845,273,133,0
1846,585,485,0
1847,351,291,0
1848,819,679,0
1849,39,19,0
1850,273,133,0
1851,312,152,0
1852,312,152,0
1853,1053,873,0
1854,39,19,0
1855,312,152,0
1856,39,19,0
1857,351,171,0
1858,117,57,0
1859,234,114,0
1860,819,679,0
1861,390,190,0
1862,1170,970,0
1863,195,95,0
1864,351,171,0
1865,351,291,0
1866,390,190,0
1867,702,582,0
1868,312,152,0
1869,585,485,0
1870,273,133,0
1871,468,388,0
1872,117,57,0
1873,390,190,0
1874,1170,970,0
1875,585,485,0
1876,1170,970,0
1877,1170,970,0
1878,117,97,0
1879,234,194,0
1880,273,133,0
1881,351,171,0
1882,585,485,0
1883,1053,873,0
1884,702,582,0
1885,351,171,0
1886,117,57,0
1887,195,95,0
1888,234,194,0
1889,585,485,0
1890,39,19,0
1891,390,190,0
1892,39,19,0
1893,117,57,0
1894,117,57,0
1895,156,76,0
1896,585,485,0
1897,78,38,0
1898,1053,873,0
1899,351,171,0
1900,234,114,0
1901,117,57,0
1902,819,679,0
1903,234,194,0
1904,234,194,0
1905,234,194,0
1906,78,38,0
1907,585,485,0
1908,702,582,0
1909,351,291,0
1910,234,194,0
1911,351,171,0
1912,390,190,0
1913,195,95,0
1914,312,152,0
1915,351,171,0
1916,585,485,0
1917,585,485,0
1918,468,388,0
1919,702,582,0
1920,195,95,0
1921,1170,970,0
1922,390,190,0
1923,1053,873,0
1924,195,95,0
1925,702,582,0
1926,702,582,0
1927,39,19,0
1928,117,57,0
1929,117,57,0
1930,234,194,0
1931,936,776,0
1932,585,485,0
1933,156,76,0
1934,702,582,0
1935,702,582,0
1936,195,95,0
1937,156,76,0
1938,351,171,0
1939,312,152,0
1940,351,291,0
1941,312,152,0
1942,117,57,0
1943,1053,873,0
1944,195,95,0
1945,312,152,0
1946,39,19,0
1947,390,190,0
1948,117,97,0
1949,117,57,0
1950,819,679,0
1951,1170,970,0
1952,351,291,0
1953,117,57,0
1954,117,57,0
1955,234,194,0
1956,195,95,0
1957,819,679,0
1958,468,388,0
1959,273,133,0
1960,234,194,0
1961,351,291,0
1962,1053,873,0
1963,351,171,0
1964,78,38,0
1965,468,388,0
1966,273,133,0
1967,312,152,0
1968,156,76,0
1969,351,171,0
1970,936,776,0
1971,351,291,0
1972,468,388,0
1973,39,19,0
1974,819,679,0
1975,78,38,0
1976,117,97,0
1977,312,152,0
1978,585,485,0
1979,585,485,0
1980,351,171,0
1981,39,19,0
1982,1053,873,0
1983,117,57,0
1984,234,194,0
1985,390,190,0
1986,234,194,0
1987,390,190,0
1988,117,97,0
1989,156,76,0
1990,117,57,0
1991,390,190,0
1992,312,152,0
1993,117,97,0
1994,351,291,0
1995,1053,873,0
1996,351,171,0
1997,312,152,0
1998,1170,970,0
1999,312,152,0
2000,312,152,1
